Maximize
  - 2.3111366705027 edge_0_1_0_0 - 1.3993811287944 edge_0_2_0_0
   - 0.16480793134848 edge_0_4_0_0 - 2.14384689696 edge_0_7_0_0
   - 0.82448343823186 edge_0_10_0_0 - 0.5906828369897 edge_0_13_0_0
   + 0.660868843049522 edge_1_2_0_0 + 0.8684758880881842 edge_1_4_0_0
   + 0.2177060901285908 edge_1_7_0_0 - 0.3210044246454432 edge_1_8_0_0
   + 0.1077428454511094 edge_1_9_0_0 + 0.4661918569936107 edge_1_10_0_0
   + 0.0229224270069418 edge_1_12_0_0 - 0.1012480135728321 edge_1_13_0_0
   - 0.6679529558007216 edge_1_15_0_0 - 0.825068994138014 edge_1_16_0_0
   + 1.697803606312265 edge_1_17_0_0 + 2.039138931212192 edge_2_1_0_0
   + 1.564522419514773 edge_2_4_0_0 + 1.200671868284157 edge_2_7_0_0
   - 0.4868700025410561 edge_2_8_0_0 + 1.094775374726721 edge_2_9_0_0
   + 1.530956804068713 edge_2_10_0_0 + 1.209585208321201 edge_2_12_0_0
   + 0.8093177149188076 edge_2_13_0_0 - 0.3351295278476418 edge_2_15_0_0
   - 0.0679599062813436 edge_2_16_0_0 + 2.301645083028569 edge_2_17_0_0
   + 1.780055231359485 edge_4_1_0_0 + 1.440322031681343 edge_4_2_0_0
   + 1.244123098451756 edge_4_7_0_0 + 0.0361922338465416 edge_4_8_0_0
   + 1.238895775414444 edge_4_9_0_0 + 1.378948058802684 edge_4_10_0_0
   + 1.453952991638742 edge_4_12_0_0 + 1.206766402556725 edge_4_13_0_0
   + 0.1281217877054154 edge_4_15_0_0 + 0.6094676073817488 edge_4_16_0_0
   + 2.744841972389334 edge_4_17_0_0 + 0.275811110735974 edge_7_1_0_0
   + 0.791865496907438 edge_7_2_0_0 + 0.2195621667085227 edge_7_4_0_0
   + 0.4757010038228497 edge_7_8_0_0 + 1.282746865925013 edge_7_9_0_0
   + 1.431023402213483 edge_7_10_0_0 + 0.7609824911851323 edge_7_12_0_0
   + 0.7416625384523463 edge_7_13_0_0 - 0.1298813606676162 edge_7_15_0_0
   + 0.3588032805309695 edge_7_16_0_0 + 1.828920991514531 edge_7_17_0_0
   - 0.9069093434334082 edge_8_1_0_0 - 0.6510209966336998 edge_8_2_0_0
   - 0.3476317871593449 edge_8_4_0_0 + 0.1382815094496388 edge_8_7_0_0
   + 0.6211912074281535 edge_8_9_0_0 + 0.1554971066474949 edge_8_12_0_0
   - 0.4833203773641596 edge_8_16_0_0 + 0.5640704207724899 edge_9_1_0_0
   + 0.8177152922828779 edge_9_2_0_0 - 0.0131451769099046 edge_9_4_0_0
   + 0.2502738702901879 edge_9_7_0_0 + 1.339270448616469 edge_9_8_0_0
   + 1.049616177870121 edge_9_10_0_0 + 0.3172943941162406 edge_9_12_0_0
   - 0.1938799415919874 edge_9_13_0_0 - 0.4871687647951228 edge_9_15_0_0
   - 0.2538954052913082 edge_9_16_0_0 + 0.5213814800080288 edge_9_17_0_0
   + 0.6562076532384195 edge_10_1_0_0 + 0.8618582468571184 edge_10_2_0_0
   + 0.4731128575220181 edge_10_4_0_0 + 2.857527746521852 edge_10_7_0_0
   + 2.227992607403249 edge_10_8_0_0 + 2.674501216262266 edge_10_9_0_0
   + 2.392698949343022 edge_10_12_0_0 + 2.495318308615989 edge_10_13_0_0
   - 0.1845146739316284 edge_10_15_0_0 + 1.83436390657653 edge_10_16_0_0
   + 3.513803090126807 edge_10_17_0_0 - 1.36085956925801 edge_12_1_0_0
   - 1.088499850916075 edge_12_2_0_0 - 0.7397075090591856 edge_12_4_0_0
   - 0.5082457367071709 edge_12_7_0_0 - 0.4321756471632845 edge_12_8_0_0
   - 0.2076870885666705 edge_12_9_0_0 - 0.3451788665382295 edge_12_10_0_0
   + 0.1222769719462651 edge_12_13_0_0 + 0.00752164639851886 edge_12_16_0_0
   - 2.266999231806513 edge_13_1_0_0 - 1.220212865485077 edge_13_2_0_0
   - 0.6964760964964238 edge_13_4_0_0 - 0.8786632869997907 edge_13_7_0_0
   - 0.9673997425186507 edge_13_9_0_0 - 0.7283371325529132 edge_13_10_0_0
   - 0.347237676974784 edge_13_12_0_0 + 1.244124764819731 edge_13_15_0_0
   + 1.910054958174869 edge_13_16_0_0 + 2.173859255628868 edge_13_17_0_0
   - 0.4011301084549193 edge_15_12_0_0 + 0.9332669552631531 edge_15_16_0_0
   + 0.3021211292097021 edge_15_17_0_0 - 0.5170471929456325 edge_16_1_0_0
   - 0.6434704575897896 edge_16_2_0_0 - 0.2545166279243624 edge_16_4_0_0
   - 0.3917188484412183 edge_16_7_0_0 + 0.2776052682513716 edge_16_8_0_0
   + 0.8927068407623954 edge_16_9_0_0 - 0.212920885872122 edge_16_10_0_0
   + 0.1132446401646698 edge_16_12_0_0 + 0.0780077459861543 edge_16_13_0_0
   + 2.313229281289204 edge_16_15_0_0 + 0.5224645929336974 edge_16_17_0_0
   - 1.341615880128633 edge_17_15_0_0 - 0.8252149266693388 edge_17_16_0_0
Subject To
 one_parent_1: edge_0_1_0_0 + edge_2_1_0_0 + edge_4_1_0_0 + edge_7_1_0_0
   + edge_8_1_0_0 + edge_9_1_0_0 + edge_10_1_0_0 + edge_12_1_0_0
   + edge_13_1_0_0 + edge_16_1_0_0 = 1
 consume_one_flow_unit_1: flow_0_1_0_0 - flow_1_2_0_0 - flow_1_4_0_0
   - flow_1_7_0_0 - flow_1_8_0_0 - flow_1_9_0_0 - flow_1_10_0_0
   - flow_1_12_0_0 - flow_1_13_0_0 - flow_1_15_0_0 - flow_1_16_0_0
   - flow_1_17_0_0 + flow_2_1_0_0 + flow_4_1_0_0 + flow_7_1_0_0
   + flow_8_1_0_0 + flow_9_1_0_0 + flow_10_1_0_0 + flow_12_1_0_0
   + flow_13_1_0_0 + flow_16_1_0_0 = 1
 one_parent_2: edge_0_2_0_0 + edge_1_2_0_0 + edge_4_2_0_0 + edge_7_2_0_0
   + edge_8_2_0_0 + edge_9_2_0_0 + edge_10_2_0_0 + edge_12_2_0_0
   + edge_13_2_0_0 + edge_16_2_0_0 = 1
 consume_one_flow_unit_2: flow_0_2_0_0 + flow_1_2_0_0 - flow_2_1_0_0
   - flow_2_4_0_0 - flow_2_7_0_0 - flow_2_8_0_0 - flow_2_9_0_0
   - flow_2_10_0_0 - flow_2_12_0_0 - flow_2_13_0_0 - flow_2_15_0_0
   - flow_2_16_0_0 - flow_2_17_0_0 + flow_4_2_0_0 + flow_7_2_0_0
   + flow_8_2_0_0 + flow_9_2_0_0 + flow_10_2_0_0 + flow_12_2_0_0
   + flow_13_2_0_0 + flow_16_2_0_0 = 1
 one_parent_3: = 1
 consume_one_flow_unit_3: = 1
 one_parent_4: edge_0_4_0_0 + edge_1_4_0_0 + edge_2_4_0_0 + edge_7_4_0_0
   + edge_8_4_0_0 + edge_9_4_0_0 + edge_10_4_0_0 + edge_12_4_0_0
   + edge_13_4_0_0 + edge_16_4_0_0 = 1
 consume_one_flow_unit_4: flow_0_4_0_0 + flow_1_4_0_0 + flow_2_4_0_0
   - flow_4_1_0_0 - flow_4_2_0_0 - flow_4_7_0_0 - flow_4_8_0_0
   - flow_4_9_0_0 - flow_4_10_0_0 - flow_4_12_0_0 - flow_4_13_0_0
   - flow_4_15_0_0 - flow_4_16_0_0 - flow_4_17_0_0 + flow_7_4_0_0
   + flow_8_4_0_0 + flow_9_4_0_0 + flow_10_4_0_0 + flow_12_4_0_0
   + flow_13_4_0_0 + flow_16_4_0_0 = 1
 one_parent_5: = 1
 consume_one_flow_unit_5: = 1
 one_parent_6: = 1
 consume_one_flow_unit_6: = 1
 one_parent_7: edge_0_7_0_0 + edge_1_7_0_0 + edge_2_7_0_0 + edge_4_7_0_0
   + edge_8_7_0_0 + edge_9_7_0_0 + edge_10_7_0_0 + edge_12_7_0_0
   + edge_13_7_0_0 + edge_16_7_0_0 = 1
 consume_one_flow_unit_7: flow_0_7_0_0 + flow_1_7_0_0 + flow_2_7_0_0
   + flow_4_7_0_0 - flow_7_1_0_0 - flow_7_2_0_0 - flow_7_4_0_0
   - flow_7_8_0_0 - flow_7_9_0_0 - flow_7_10_0_0 - flow_7_12_0_0
   - flow_7_13_0_0 - flow_7_15_0_0 - flow_7_16_0_0 - flow_7_17_0_0
   + flow_8_7_0_0 + flow_9_7_0_0 + flow_10_7_0_0 + flow_12_7_0_0
   + flow_13_7_0_0 + flow_16_7_0_0 = 1
 one_parent_8: edge_1_8_0_0 + edge_2_8_0_0 + edge_4_8_0_0 + edge_7_8_0_0
   + edge_9_8_0_0 + edge_10_8_0_0 + edge_12_8_0_0 + edge_16_8_0_0 = 1
 consume_one_flow_unit_8: flow_1_8_0_0 + flow_2_8_0_0 + flow_4_8_0_0
   + flow_7_8_0_0 - flow_8_1_0_0 - flow_8_2_0_0 - flow_8_4_0_0
   - flow_8_7_0_0 - flow_8_9_0_0 - flow_8_12_0_0 - flow_8_16_0_0
   + flow_9_8_0_0 + flow_10_8_0_0 + flow_12_8_0_0 + flow_16_8_0_0 = 1
 one_parent_9: edge_1_9_0_0 + edge_2_9_0_0 + edge_4_9_0_0 + edge_7_9_0_0
   + edge_8_9_0_0 + edge_10_9_0_0 + edge_12_9_0_0 + edge_13_9_0_0
   + edge_16_9_0_0 = 1
 consume_one_flow_unit_9: flow_1_9_0_0 + flow_2_9_0_0 + flow_4_9_0_0
   + flow_7_9_0_0 + flow_8_9_0_0 - flow_9_1_0_0 - flow_9_2_0_0
   - flow_9_4_0_0 - flow_9_7_0_0 - flow_9_8_0_0 - flow_9_10_0_0
   - flow_9_12_0_0 - flow_9_13_0_0 - flow_9_15_0_0 - flow_9_16_0_0
   - flow_9_17_0_0 + flow_10_9_0_0 + flow_12_9_0_0 + flow_13_9_0_0
   + flow_16_9_0_0 = 1
 one_parent_10: edge_0_10_0_0 + edge_1_10_0_0 + edge_2_10_0_0
   + edge_4_10_0_0 + edge_7_10_0_0 + edge_9_10_0_0 + edge_12_10_0_0
   + edge_13_10_0_0 + edge_16_10_0_0 = 1
 consume_one_flow_unit_10: flow_0_10_0_0 + flow_1_10_0_0 + flow_2_10_0_0
   + flow_4_10_0_0 + flow_7_10_0_0 + flow_9_10_0_0 - flow_10_1_0_0
   - flow_10_2_0_0 - flow_10_4_0_0 - flow_10_7_0_0 - flow_10_8_0_0
   - flow_10_9_0_0 - flow_10_12_0_0 - flow_10_13_0_0 - flow_10_15_0_0
   - flow_10_16_0_0 - flow_10_17_0_0 + flow_12_10_0_0 + flow_13_10_0_0
   + flow_16_10_0_0 = 1
 one_parent_11: = 1
 consume_one_flow_unit_11: = 1
 one_parent_12: edge_1_12_0_0 + edge_2_12_0_0 + edge_4_12_0_0
   + edge_7_12_0_0 + edge_8_12_0_0 + edge_9_12_0_0 + edge_10_12_0_0
   + edge_13_12_0_0 + edge_15_12_0_0 + edge_16_12_0_0 = 1
 consume_one_flow_unit_12: flow_1_12_0_0 + flow_2_12_0_0 + flow_4_12_0_0
   + flow_7_12_0_0 + flow_8_12_0_0 + flow_9_12_0_0 + flow_10_12_0_0
   - flow_12_1_0_0 - flow_12_2_0_0 - flow_12_4_0_0 - flow_12_7_0_0
   - flow_12_8_0_0 - flow_12_9_0_0 - flow_12_10_0_0 - flow_12_13_0_0
   - flow_12_16_0_0 + flow_13_12_0_0 + flow_15_12_0_0 + flow_16_12_0_0 = 1
 one_parent_13: edge_0_13_0_0 + edge_1_13_0_0 + edge_2_13_0_0
   + edge_4_13_0_0 + edge_7_13_0_0 + edge_9_13_0_0 + edge_10_13_0_0
   + edge_12_13_0_0 + edge_16_13_0_0 = 1
 consume_one_flow_unit_13: flow_0_13_0_0 + flow_1_13_0_0 + flow_2_13_0_0
   + flow_4_13_0_0 + flow_7_13_0_0 + flow_9_13_0_0 + flow_10_13_0_0
   + flow_12_13_0_0 - flow_13_1_0_0 - flow_13_2_0_0 - flow_13_4_0_0
   - flow_13_7_0_0 - flow_13_9_0_0 - flow_13_10_0_0 - flow_13_12_0_0
   - flow_13_15_0_0 - flow_13_16_0_0 - flow_13_17_0_0 + flow_16_13_0_0 = 1
 one_parent_14: = 1
 consume_one_flow_unit_14: = 1
 one_parent_15: edge_1_15_0_0 + edge_2_15_0_0 + edge_4_15_0_0
   + edge_7_15_0_0 + edge_9_15_0_0 + edge_10_15_0_0 + edge_13_15_0_0
   + edge_16_15_0_0 + edge_17_15_0_0 = 1
 consume_one_flow_unit_15: flow_1_15_0_0 + flow_2_15_0_0 + flow_4_15_0_0
   + flow_7_15_0_0 + flow_9_15_0_0 + flow_10_15_0_0 + flow_13_15_0_0
   - flow_15_12_0_0 - flow_15_16_0_0 - flow_15_17_0_0 + flow_16_15_0_0
   + flow_17_15_0_0 = 1
 one_parent_16: edge_1_16_0_0 + edge_2_16_0_0 + edge_4_16_0_0
   + edge_7_16_0_0 + edge_8_16_0_0 + edge_9_16_0_0 + edge_10_16_0_0
   + edge_12_16_0_0 + edge_13_16_0_0 + edge_15_16_0_0 + edge_17_16_0_0 = 1
 consume_one_flow_unit_16: flow_1_16_0_0 + flow_2_16_0_0 + flow_4_16_0_0
   + flow_7_16_0_0 + flow_8_16_0_0 + flow_9_16_0_0 + flow_10_16_0_0
   + flow_12_16_0_0 + flow_13_16_0_0 + flow_15_16_0_0 - flow_16_1_0_0
   - flow_16_2_0_0 - flow_16_4_0_0 - flow_16_7_0_0 - flow_16_8_0_0
   - flow_16_9_0_0 - flow_16_10_0_0 - flow_16_12_0_0 - flow_16_13_0_0
   - flow_16_15_0_0 - flow_16_17_0_0 + flow_17_16_0_0 = 1
 one_parent_17: edge_1_17_0_0 + edge_2_17_0_0 + edge_4_17_0_0
   + edge_7_17_0_0 + edge_9_17_0_0 + edge_10_17_0_0 + edge_13_17_0_0
   + edge_15_17_0_0 + edge_16_17_0_0 = 1
 consume_one_flow_unit_17: flow_1_17_0_0 + flow_2_17_0_0 + flow_4_17_0_0
   + flow_7_17_0_0 + flow_9_17_0_0 + flow_10_17_0_0 + flow_13_17_0_0
   + flow_15_17_0_0 + flow_16_17_0_0 - flow_17_15_0_0 - flow_17_16_0_0 = 1
 root_flow: flow_0_1_0_0 + flow_0_2_0_0 + flow_0_4_0_0 + flow_0_7_0_0
   + flow_0_10_0_0 + flow_0_13_0_0 = 17
 inactive_no_flow_0_1_0_0: flow_0_1_0_0 - 1000 edge_0_1_0_0 <= 0
 inactive_no_flow_0_2_0_0: flow_0_2_0_0 - 1000 edge_0_2_0_0 <= 0
 inactive_no_flow_0_4_0_0: flow_0_4_0_0 - 1000 edge_0_4_0_0 <= 0
 inactive_no_flow_0_7_0_0: flow_0_7_0_0 - 1000 edge_0_7_0_0 <= 0
 inactive_no_flow_0_10_0_0: flow_0_10_0_0 - 1000 edge_0_10_0_0 <= 0
 inactive_no_flow_0_13_0_0: flow_0_13_0_0 - 1000 edge_0_13_0_0 <= 0
 inactive_no_flow_1_2_0_0: flow_1_2_0_0 - 1000 edge_1_2_0_0 <= 0
 inactive_no_flow_1_4_0_0: flow_1_4_0_0 - 1000 edge_1_4_0_0 <= 0
 inactive_no_flow_1_7_0_0: flow_1_7_0_0 - 1000 edge_1_7_0_0 <= 0
 inactive_no_flow_1_8_0_0: flow_1_8_0_0 - 1000 edge_1_8_0_0 <= 0
 inactive_no_flow_1_9_0_0: flow_1_9_0_0 - 1000 edge_1_9_0_0 <= 0
 inactive_no_flow_1_10_0_0: flow_1_10_0_0 - 1000 edge_1_10_0_0 <= 0
 inactive_no_flow_1_12_0_0: flow_1_12_0_0 - 1000 edge_1_12_0_0 <= 0
 inactive_no_flow_1_13_0_0: flow_1_13_0_0 - 1000 edge_1_13_0_0 <= 0
 inactive_no_flow_1_15_0_0: flow_1_15_0_0 - 1000 edge_1_15_0_0 <= 0
 inactive_no_flow_1_16_0_0: flow_1_16_0_0 - 1000 edge_1_16_0_0 <= 0
 inactive_no_flow_1_17_0_0: flow_1_17_0_0 - 1000 edge_1_17_0_0 <= 0
 inactive_no_flow_2_1_0_0: flow_2_1_0_0 - 1000 edge_2_1_0_0 <= 0
 inactive_no_flow_2_4_0_0: flow_2_4_0_0 - 1000 edge_2_4_0_0 <= 0
 inactive_no_flow_2_7_0_0: flow_2_7_0_0 - 1000 edge_2_7_0_0 <= 0
 inactive_no_flow_2_8_0_0: flow_2_8_0_0 - 1000 edge_2_8_0_0 <= 0
 inactive_no_flow_2_9_0_0: flow_2_9_0_0 - 1000 edge_2_9_0_0 <= 0
 inactive_no_flow_2_10_0_0: flow_2_10_0_0 - 1000 edge_2_10_0_0 <= 0
 inactive_no_flow_2_12_0_0: flow_2_12_0_0 - 1000 edge_2_12_0_0 <= 0
 inactive_no_flow_2_13_0_0: flow_2_13_0_0 - 1000 edge_2_13_0_0 <= 0
 inactive_no_flow_2_15_0_0: flow_2_15_0_0 - 1000 edge_2_15_0_0 <= 0
 inactive_no_flow_2_16_0_0: flow_2_16_0_0 - 1000 edge_2_16_0_0 <= 0
 inactive_no_flow_2_17_0_0: flow_2_17_0_0 - 1000 edge_2_17_0_0 <= 0
 inactive_no_flow_4_1_0_0: flow_4_1_0_0 - 1000 edge_4_1_0_0 <= 0
 inactive_no_flow_4_2_0_0: flow_4_2_0_0 - 1000 edge_4_2_0_0 <= 0
 inactive_no_flow_4_7_0_0: flow_4_7_0_0 - 1000 edge_4_7_0_0 <= 0
 inactive_no_flow_4_8_0_0: flow_4_8_0_0 - 1000 edge_4_8_0_0 <= 0
 inactive_no_flow_4_9_0_0: flow_4_9_0_0 - 1000 edge_4_9_0_0 <= 0
 inactive_no_flow_4_10_0_0: flow_4_10_0_0 - 1000 edge_4_10_0_0 <= 0
 inactive_no_flow_4_12_0_0: flow_4_12_0_0 - 1000 edge_4_12_0_0 <= 0
 inactive_no_flow_4_13_0_0: flow_4_13_0_0 - 1000 edge_4_13_0_0 <= 0
 inactive_no_flow_4_15_0_0: flow_4_15_0_0 - 1000 edge_4_15_0_0 <= 0
 inactive_no_flow_4_16_0_0: flow_4_16_0_0 - 1000 edge_4_16_0_0 <= 0
 inactive_no_flow_4_17_0_0: flow_4_17_0_0 - 1000 edge_4_17_0_0 <= 0
 inactive_no_flow_7_1_0_0: flow_7_1_0_0 - 1000 edge_7_1_0_0 <= 0
 inactive_no_flow_7_2_0_0: flow_7_2_0_0 - 1000 edge_7_2_0_0 <= 0
 inactive_no_flow_7_4_0_0: flow_7_4_0_0 - 1000 edge_7_4_0_0 <= 0
 inactive_no_flow_7_8_0_0: flow_7_8_0_0 - 1000 edge_7_8_0_0 <= 0
 inactive_no_flow_7_9_0_0: flow_7_9_0_0 - 1000 edge_7_9_0_0 <= 0
 inactive_no_flow_7_10_0_0: flow_7_10_0_0 - 1000 edge_7_10_0_0 <= 0
 inactive_no_flow_7_12_0_0: flow_7_12_0_0 - 1000 edge_7_12_0_0 <= 0
 inactive_no_flow_7_13_0_0: flow_7_13_0_0 - 1000 edge_7_13_0_0 <= 0
 inactive_no_flow_7_15_0_0: flow_7_15_0_0 - 1000 edge_7_15_0_0 <= 0
 inactive_no_flow_7_16_0_0: flow_7_16_0_0 - 1000 edge_7_16_0_0 <= 0
 inactive_no_flow_7_17_0_0: flow_7_17_0_0 - 1000 edge_7_17_0_0 <= 0
 inactive_no_flow_8_1_0_0: flow_8_1_0_0 - 1000 edge_8_1_0_0 <= 0
 inactive_no_flow_8_2_0_0: flow_8_2_0_0 - 1000 edge_8_2_0_0 <= 0
 inactive_no_flow_8_4_0_0: flow_8_4_0_0 - 1000 edge_8_4_0_0 <= 0
 inactive_no_flow_8_7_0_0: flow_8_7_0_0 - 1000 edge_8_7_0_0 <= 0
 inactive_no_flow_8_9_0_0: flow_8_9_0_0 - 1000 edge_8_9_0_0 <= 0
 inactive_no_flow_8_12_0_0: flow_8_12_0_0 - 1000 edge_8_12_0_0 <= 0
 inactive_no_flow_8_16_0_0: flow_8_16_0_0 - 1000 edge_8_16_0_0 <= 0
 inactive_no_flow_9_1_0_0: flow_9_1_0_0 - 1000 edge_9_1_0_0 <= 0
 inactive_no_flow_9_2_0_0: flow_9_2_0_0 - 1000 edge_9_2_0_0 <= 0
 inactive_no_flow_9_4_0_0: flow_9_4_0_0 - 1000 edge_9_4_0_0 <= 0
 inactive_no_flow_9_7_0_0: flow_9_7_0_0 - 1000 edge_9_7_0_0 <= 0
 inactive_no_flow_9_8_0_0: flow_9_8_0_0 - 1000 edge_9_8_0_0 <= 0
 inactive_no_flow_9_10_0_0: flow_9_10_0_0 - 1000 edge_9_10_0_0 <= 0
 inactive_no_flow_9_12_0_0: flow_9_12_0_0 - 1000 edge_9_12_0_0 <= 0
 inactive_no_flow_9_13_0_0: flow_9_13_0_0 - 1000 edge_9_13_0_0 <= 0
 inactive_no_flow_9_15_0_0: flow_9_15_0_0 - 1000 edge_9_15_0_0 <= 0
 inactive_no_flow_9_16_0_0: flow_9_16_0_0 - 1000 edge_9_16_0_0 <= 0
 inactive_no_flow_9_17_0_0: flow_9_17_0_0 - 1000 edge_9_17_0_0 <= 0
 inactive_no_flow_10_1_0_0: flow_10_1_0_0 - 1000 edge_10_1_0_0 <= 0
 inactive_no_flow_10_2_0_0: flow_10_2_0_0 - 1000 edge_10_2_0_0 <= 0
 inactive_no_flow_10_4_0_0: flow_10_4_0_0 - 1000 edge_10_4_0_0 <= 0
 inactive_no_flow_10_7_0_0: flow_10_7_0_0 - 1000 edge_10_7_0_0 <= 0
 inactive_no_flow_10_8_0_0: flow_10_8_0_0 - 1000 edge_10_8_0_0 <= 0
 inactive_no_flow_10_9_0_0: flow_10_9_0_0 - 1000 edge_10_9_0_0 <= 0
 inactive_no_flow_10_12_0_0: flow_10_12_0_0 - 1000 edge_10_12_0_0 <= 0
 inactive_no_flow_10_13_0_0: flow_10_13_0_0 - 1000 edge_10_13_0_0 <= 0
 inactive_no_flow_10_15_0_0: flow_10_15_0_0 - 1000 edge_10_15_0_0 <= 0
 inactive_no_flow_10_16_0_0: flow_10_16_0_0 - 1000 edge_10_16_0_0 <= 0
 inactive_no_flow_10_17_0_0: flow_10_17_0_0 - 1000 edge_10_17_0_0 <= 0
 inactive_no_flow_12_1_0_0: flow_12_1_0_0 - 1000 edge_12_1_0_0 <= 0
 inactive_no_flow_12_2_0_0: flow_12_2_0_0 - 1000 edge_12_2_0_0 <= 0
 inactive_no_flow_12_4_0_0: flow_12_4_0_0 - 1000 edge_12_4_0_0 <= 0
 inactive_no_flow_12_7_0_0: flow_12_7_0_0 - 1000 edge_12_7_0_0 <= 0
 inactive_no_flow_12_8_0_0: flow_12_8_0_0 - 1000 edge_12_8_0_0 <= 0
 inactive_no_flow_12_9_0_0: flow_12_9_0_0 - 1000 edge_12_9_0_0 <= 0
 inactive_no_flow_12_10_0_0: flow_12_10_0_0 - 1000 edge_12_10_0_0 <= 0
 inactive_no_flow_12_13_0_0: flow_12_13_0_0 - 1000 edge_12_13_0_0 <= 0
 inactive_no_flow_12_16_0_0: flow_12_16_0_0 - 1000 edge_12_16_0_0 <= 0
 inactive_no_flow_13_1_0_0: flow_13_1_0_0 - 1000 edge_13_1_0_0 <= 0
 inactive_no_flow_13_2_0_0: flow_13_2_0_0 - 1000 edge_13_2_0_0 <= 0
 inactive_no_flow_13_4_0_0: flow_13_4_0_0 - 1000 edge_13_4_0_0 <= 0
 inactive_no_flow_13_7_0_0: flow_13_7_0_0 - 1000 edge_13_7_0_0 <= 0
 inactive_no_flow_13_9_0_0: flow_13_9_0_0 - 1000 edge_13_9_0_0 <= 0
 inactive_no_flow_13_10_0_0: flow_13_10_0_0 - 1000 edge_13_10_0_0 <= 0
 inactive_no_flow_13_12_0_0: flow_13_12_0_0 - 1000 edge_13_12_0_0 <= 0
 inactive_no_flow_13_15_0_0: flow_13_15_0_0 - 1000 edge_13_15_0_0 <= 0
 inactive_no_flow_13_16_0_0: flow_13_16_0_0 - 1000 edge_13_16_0_0 <= 0
 inactive_no_flow_13_17_0_0: flow_13_17_0_0 - 1000 edge_13_17_0_0 <= 0
 inactive_no_flow_15_12_0_0: flow_15_12_0_0 - 1000 edge_15_12_0_0 <= 0
 inactive_no_flow_15_16_0_0: flow_15_16_0_0 - 1000 edge_15_16_0_0 <= 0
 inactive_no_flow_15_17_0_0: flow_15_17_0_0 - 1000 edge_15_17_0_0 <= 0
 inactive_no_flow_16_1_0_0: flow_16_1_0_0 - 1000 edge_16_1_0_0 <= 0
 inactive_no_flow_16_2_0_0: flow_16_2_0_0 - 1000 edge_16_2_0_0 <= 0
 inactive_no_flow_16_4_0_0: flow_16_4_0_0 - 1000 edge_16_4_0_0 <= 0
 inactive_no_flow_16_7_0_0: flow_16_7_0_0 - 1000 edge_16_7_0_0 <= 0
 inactive_no_flow_16_8_0_0: flow_16_8_0_0 - 1000 edge_16_8_0_0 <= 0
 inactive_no_flow_16_9_0_0: flow_16_9_0_0 - 1000 edge_16_9_0_0 <= 0
 inactive_no_flow_16_10_0_0: flow_16_10_0_0 - 1000 edge_16_10_0_0 <= 0
 inactive_no_flow_16_12_0_0: flow_16_12_0_0 - 1000 edge_16_12_0_0 <= 0
 inactive_no_flow_16_13_0_0: flow_16_13_0_0 - 1000 edge_16_13_0_0 <= 0
 inactive_no_flow_16_15_0_0: flow_16_15_0_0 - 1000 edge_16_15_0_0 <= 0
 inactive_no_flow_16_17_0_0: flow_16_17_0_0 - 1000 edge_16_17_0_0 <= 0
 inactive_no_flow_17_15_0_0: flow_17_15_0_0 - 1000 edge_17_15_0_0 <= 0
 inactive_no_flow_17_16_0_0: flow_17_16_0_0 - 1000 edge_17_16_0_0 <= 0
Bounds
Binaries
 edge_0_1_0_0 edge_0_2_0_0 edge_0_4_0_0 edge_0_7_0_0 edge_0_10_0_0
 edge_0_13_0_0 edge_1_2_0_0 edge_1_4_0_0 edge_1_7_0_0 edge_1_8_0_0
 edge_1_9_0_0 edge_1_10_0_0 edge_1_12_0_0 edge_1_13_0_0 edge_1_15_0_0
 edge_1_16_0_0 edge_1_17_0_0 edge_2_1_0_0 edge_2_4_0_0 edge_2_7_0_0
 edge_2_8_0_0 edge_2_9_0_0 edge_2_10_0_0 edge_2_12_0_0 edge_2_13_0_0
 edge_2_15_0_0 edge_2_16_0_0 edge_2_17_0_0 edge_4_1_0_0 edge_4_2_0_0
 edge_4_7_0_0 edge_4_8_0_0 edge_4_9_0_0 edge_4_10_0_0 edge_4_12_0_0
 edge_4_13_0_0 edge_4_15_0_0 edge_4_16_0_0 edge_4_17_0_0 edge_7_1_0_0
 edge_7_2_0_0 edge_7_4_0_0 edge_7_8_0_0 edge_7_9_0_0 edge_7_10_0_0
 edge_7_12_0_0 edge_7_13_0_0 edge_7_15_0_0 edge_7_16_0_0 edge_7_17_0_0
 edge_8_1_0_0 edge_8_2_0_0 edge_8_4_0_0 edge_8_7_0_0 edge_8_9_0_0
 edge_8_12_0_0 edge_8_16_0_0 edge_9_1_0_0 edge_9_2_0_0 edge_9_4_0_0
 edge_9_7_0_0 edge_9_8_0_0 edge_9_10_0_0 edge_9_12_0_0 edge_9_13_0_0
 edge_9_15_0_0 edge_9_16_0_0 edge_9_17_0_0 edge_10_1_0_0 edge_10_2_0_0
 edge_10_4_0_0 edge_10_7_0_0 edge_10_8_0_0 edge_10_9_0_0 edge_10_12_0_0
 edge_10_13_0_0 edge_10_15_0_0 edge_10_16_0_0 edge_10_17_0_0 edge_12_1_0_0
 edge_12_2_0_0 edge_12_4_0_0 edge_12_7_0_0 edge_12_8_0_0 edge_12_9_0_0
 edge_12_10_0_0 edge_12_13_0_0 edge_12_16_0_0 edge_13_1_0_0 edge_13_2_0_0
 edge_13_4_0_0 edge_13_7_0_0 edge_13_9_0_0 edge_13_10_0_0 edge_13_12_0_0
 edge_13_15_0_0 edge_13_16_0_0 edge_13_17_0_0 edge_15_12_0_0 edge_15_16_0_0
 edge_15_17_0_0 edge_16_1_0_0 edge_16_2_0_0 edge_16_4_0_0 edge_16_7_0_0
 edge_16_8_0_0 edge_16_9_0_0 edge_16_10_0_0 edge_16_12_0_0 edge_16_13_0_0
 edge_16_15_0_0 edge_16_17_0_0 edge_17_15_0_0 edge_17_16_0_0
End
